
Gurobi 10.0.3 (linux64, gurobi_cl) logging started Thu Nov  2 11:34:12 2023

Set parameter Username
Set parameter TimeLimit to value 3600
Set parameter LogFile to value "RCPSP_458.log"
Set parameter Threads to value 32
Academic license - for non-commercial use only - expires 2024-10-30
Using license file /home/jrivera6/gurobi-licenses/v1003/compute-0-35/gurobi.lic

Gurobi Optimizer version 10.0.3 build v10.0.3rc0 (linux64)
Copyright (c) 2023, Gurobi Optimization, LLC

Read MPS format model from file RCPSP_458.mps
Reading time = 0.01 seconds
RCPSP_458: 5349 rows, 2080 columns, 18893 nonzeros

CPU model: Intel(R) Xeon(R) Gold 6130 CPU @ 2.10GHz, instruction set [SSE2|AVX|AVX2|AVX512]
Thread count: 32 physical cores, 32 logical processors, using up to 32 threads

Optimize a model with 5349 rows, 2080 columns and 18893 nonzeros
Model fingerprint: 0xeb564102
Variable types: 32 continuous, 2048 integer (2048 binary)
Coefficient statistics:
  Matrix range     [1e+00, 2e+02]
  Objective range  [1e+00, 1e+00]
  Bounds range     [1e+00, 1e+00]
  RHS range        [1e+00, 2e+02]
Presolve removed 3293 rows and 1310 columns
Presolve time: 0.35s
Presolved: 2056 rows, 770 columns, 7181 nonzeros
Variable types: 31 continuous, 739 integer (739 binary)

Root relaxation: objective 5.500000e+01, 284 iterations, 0.00 seconds (0.00 work units)

    Nodes    |    Current Node    |     Objective Bounds      |     Work
 Expl Unexpl |  Obj  Depth IntInf | Incumbent    BestBd   Gap | It/Node Time

     0     0   55.00000    0   12          -   55.00000      -     -    0s
     0     0   55.00000    0   59          -   55.00000      -     -    0s
     0     0   55.00000    0   61          -   55.00000      -     -    0s
H    0     0                      69.0000000   55.00000  20.3%     -    1s
     0     0   55.00000    0    4   69.00000   55.00000  20.3%     -    1s
     0     0   55.00000    0   12   69.00000   55.00000  20.3%     -    1s
     0     0   55.00000    0    6   69.00000   55.00000  20.3%     -    1s
H    0     0                      65.0000000   55.00000  15.4%     -    1s
     0     0   55.00000    0    8   65.00000   55.00000  15.4%     -    1s
     0     0   55.00000    0    2   65.00000   55.00000  15.4%     -    1s
H    0     0                      64.0000000   55.00000  14.1%     -    1s
     0     0   55.00000    0    4   64.00000   55.00000  14.1%     -    1s
     0     0   55.00000    0    2   64.00000   55.00000  14.1%     -    1s
H    0     0                      58.0000000   55.00000  5.17%     -    1s
     0     0   55.00000    0    2   58.00000   55.00000  5.17%     -    1s
     0     0   55.00000    0   41   58.00000   55.00000  5.17%     -    1s
     0     0   55.00000    0    8   58.00000   55.00000  5.17%     -    4s
H    0     0                      56.0000000   55.00000  1.79%     -    4s
     0     0   55.00000    0   29   56.00000   55.00000  1.79%     -    5s
H    0     0                      55.0000000   55.00000  0.00%     -    5s
     0     0   55.00000    0    6   55.00000   55.00000  0.00%     -    5s

Cutting planes:
  Learned: 1
  Gomory: 2
  Cover: 3
  Implied bound: 2
  Clique: 2
  MIR: 4
  StrongCG: 1
  RLT: 5
  Relax-and-lift: 1

Explored 1 nodes (4818 simplex iterations) in 6.27 seconds (0.55 work units)
Thread count was 32 (of 32 available processors)

Solution count 6: 55 56 58 ... 69

Optimal solution found (tolerance 1.00e-04)
Best objective 5.500000000000e+01, best bound 5.500000000000e+01, gap 0.0000%

Wrote result file 'RCPSP_458.sol'

